c 3 - XORSAT
p cnf 20 80
-11 -1 -12 0
-11 1 12 0
11 -1 12 0
11 1 -12 0
-7 -11 -15 0
-7 11 15 0
7 -11 15 0
7 11 -15 0
-11 -13 -14 0
-11 13 14 0
11 -13 14 0
11 13 -14 0
2 4 20 0
-2 -4 20 0
-2 4 -20 0
2 -4 -20 0
2 8 9 0
-2 -8 9 0
-2 8 -9 0
2 -8 -9 0
-12 -17 -18 0
-12 17 18 0
12 -17 18 0
12 17 -18 0
-1 -13 -15 0
-1 13 15 0
1 -13 15 0
1 13 -15 0
-5 -14 -9 0
-5 14 9 0
5 -14 9 0
5 14 -9 0
3 4 10 0
-3 -4 10 0
-3 4 -10 0
3 -4 -10 0
3 6 7 0
-3 -6 7 0
-3 6 -7 0
3 -6 -7 0
-10 -18 -19 0
-10 18 19 0
10 -18 19 0
10 18 -19 0
1 3 6 0
-1 -3 6 0
-1 3 -6 0
1 -3 -6 0
8 17 18 0
-8 -17 18 0
-8 17 -18 0
8 -17 -18 0
-17 -20 -6 0
-17 20 6 0
17 -20 6 0
17 20 -6 0
7 9 19 0
-7 -9 19 0
-7 9 -19 0
7 -9 -19 0
-5 -15 -16 0
-5 15 16 0
5 -15 16 0
5 15 -16 0
-16 -19 -12 0
-16 19 12 0
16 -19 12 0
16 19 -12 0
-5 -8 -14 0
-5 8 14 0
5 -8 14 0
5 8 -14 0
-2 -10 -16 0
-2 10 16 0
2 -10 16 0
2 10 -16 0
4 13 20 0
-4 -13 20 0
-4 13 -20 0
4 -13 -20 0
